data/lp_files/pEFS/46_1.lp
\ Model foo
\ LP format - for model browsing. Use MPS format to capture full model detail.
Minimize
  z
Subject To
 allocateEach[1]: x[1,1] + x[2,1] + x[3,1] = 1
 allocateEach[2]: x[1,2] + x[2,2] + x[3,2] = 1
 allocateEach[3]: x[1,3] + x[2,3] + x[3,3] = 1
 allocateEach[4]: x[1,4] + x[2,4] + x[3,4] = 1
 allocateEach[5]: x[1,5] + x[2,5] + x[3,5] = 1
 allocateEach[6]: x[1,6] + x[2,6] + x[3,6] = 1
 allocateAllCash: cashProportion[1] + cashProportion[2] + cashProportion[3]
   = 1
 findWorstP[1,2]: z + 0.0450714382295939 cashProportion[1]
   - 0.0450714382295939 cashProportion[2] + 0.0628746563302835 x[1,1]
   + 0.4496326677784288 x[1,2] + 0.0876188759183305 x[1,3]
   + 0.0570153693604363 x[1,4] + 0.0362374363365935 x[1,5]
   + 0.2615495560463335 x[1,6] - 0.0628746563302835 x[2,1]
   - 0.4496326677784288 x[2,2] - 0.0876188759183305 x[2,3]
   - 0.0570153693604363 x[2,4] - 0.0362374363365935 x[2,5]
   - 0.2615495560463335 x[2,6] >= 0
 findWorstP[1,3]: z + 0.0450714382295939 cashProportion[1]
   - 0.0450714382295939 cashProportion[3] + 0.0628746563302835 x[1,1]
   + 0.4496326677784288 x[1,2] + 0.0876188759183305 x[1,3]
   + 0.0570153693604363 x[1,4] + 0.0362374363365935 x[1,5]
   + 0.2615495560463335 x[1,6] - 0.0628746563302835 x[3,1]
   - 0.4496326677784288 x[3,2] - 0.0876188759183305 x[3,3]
   - 0.0570153693604363 x[3,4] - 0.0362374363365935 x[3,5]
   - 0.2615495560463335 x[3,6] >= 0
 findWorstP[2,1]: z - 0.0281270216296796 cashProportion[1]
   + 0.0281270216296796 cashProportion[2] - 0.0641014822940399 x[1,1]
   - 0.0740021939076871 x[1,2] - 0.1668213652856299 x[1,3]
   - 0.1891823474812252 x[1,4] - 0.2051022417236239 x[1,5]
   - 0.2726633476781144 x[1,6] + 0.0641014822940399 x[2,1]
   + 0.0740021939076871 x[2,2] + 0.1668213652856299 x[2,3]
   + 0.1891823474812252 x[2,4] + 0.2051022417236239 x[2,5]
   + 0.2726633476781144 x[2,6] >= 0
 findWorstP[2,3]: z + 0.0281270216296796 cashProportion[2]
   - 0.0281270216296796 cashProportion[3] + 0.0641014822940399 x[2,1]
   + 0.0740021939076871 x[2,2] + 0.1668213652856299 x[2,3]
   + 0.1891823474812252 x[2,4] + 0.2051022417236239 x[2,5]
   + 0.2726633476781144 x[2,6] - 0.0641014822940399 x[3,1]
   - 0.0740021939076871 x[3,2] - 0.1668213652856299 x[3,3]
   - 0.1891823474812252 x[3,4] - 0.2051022417236239 x[3,5]
   - 0.2726633476781144 x[3,6] >= 0
 findWorstP[3,1]: z - 0.0553587245349867 cashProportion[1]
   + 0.0553587245349867 cashProportion[3] - 0.0569087688219663 x[1,1]
   - 0.1905447298494243 x[1,2] - 0.274800708591674 x[1,3]
   - 0.1595992028343667 x[1,4] - 0.2311226749335695 x[1,5]
   - 0.0316651904340124 x[1,6] + 0.0569087688219663 x[3,1]
   + 0.1905447298494243 x[3,2] + 0.274800708591674 x[3,3]
   + 0.1595992028343667 x[3,4] + 0.2311226749335695 x[3,5]
   + 0.0316651904340124 x[3,6] >= 0
 findWorstP[3,2]: z - 0.0553587245349867 cashProportion[2]
   + 0.0553587245349867 cashProportion[3] - 0.0569087688219663 x[2,1]
   - 0.1905447298494243 x[2,2] - 0.274800708591674 x[2,3]
   - 0.1595992028343667 x[2,4] - 0.2311226749335695 x[2,5]
   - 0.0316651904340124 x[2,6] + 0.0569087688219663 x[3,1]
   + 0.1905447298494243 x[3,2] + 0.274800708591674 x[3,3]
   + 0.1595992028343667 x[3,4] + 0.2311226749335695 x[3,5]
   + 0.0316651904340124 x[3,6] >= 0
Bounds
 z <= 1
 -infinity <= cashProportion[1] <= 1
 -infinity <= cashProportion[2] <= 1
 -infinity <= cashProportion[3] <= 1
Binaries
 x[1,1] x[1,2] x[1,3] x[1,4] x[1,5] x[1,6] x[2,1] x[2,2] x[2,3] x[2,4]
 x[2,5] x[2,6] x[3,1] x[3,2] x[3,3] x[3,4] x[3,5] x[3,6]
End
